cnf/30_3_2.cnf
p cnf 98 1020
9 0
-10 0
-11 0
-12 0
-13 0
14 0
15 0
16 0
17 0
18 0
-19 0
20 0
-21 0
-22 0
-23 0
24 0
-25 0
-26 0
-27 0
28 0
-29 0
30 0
31 0
32 0
33 0
34 0
-35 0
36 0
37 0
38 0
69 0
70 0
71 0
-72 0
73 0
-74 0
-75 0
-76 0
77 0
78 0
-79 0
-80 0
81 0
-82 0
-83 0
-84 0
85 0
-86 0
-87 0
88 0
89 0
-90 0
-91 0
-92 0
93 0
94 0
95 0
-96 0
97 0
98 0
1 -39 9 10 11 0
-1 39 9 10 11 0
2 -39 9 10 -11 0
-2 39 9 10 -11 0
3 -39 9 -10 11 0
-3 39 9 -10 11 0
4 -39 9 -10 -11 0
-4 39 9 -10 -11 0
5 -39 -9 10 11 0
-5 39 -9 10 11 0
6 -39 -9 10 -11 0
-6 39 -9 10 -11 0
7 -39 -9 -10 11 0
-7 39 -9 -10 11 0
8 -39 -9 -10 -11 0
-8 39 -9 -10 -11 0
1 -69 39 40 41 0
-1 69 39 40 41 0
2 -69 39 40 -41 0
-2 69 39 40 -41 0
3 -69 39 -40 41 0
-3 69 39 -40 41 0
4 -69 39 -40 -41 0
-4 69 39 -40 -41 0
5 -69 -39 40 41 0
-5 69 -39 40 41 0
6 -69 -39 40 -41 0
-6 69 -39 40 -41 0
7 -69 -39 -40 41 0
-7 69 -39 -40 41 0
8 -69 -39 -40 -41 0
-8 69 -39 -40 -41 0
1 -40 10 11 12 0
-1 40 10 11 12 0
2 -40 10 11 -12 0
-2 40 10 11 -12 0
3 -40 10 -11 12 0
-3 40 10 -11 12 0
4 -40 10 -11 -12 0
-4 40 10 -11 -12 0
5 -40 -10 11 12 0
-5 40 -10 11 12 0
6 -40 -10 11 -12 0
-6 40 -10 11 -12 0
7 -40 -10 -11 12 0
-7 40 -10 -11 12 0
8 -40 -10 -11 -12 0
-8 40 -10 -11 -12 0
1 -70 40 41 42 0
-1 70 40 41 42 0
2 -70 40 41 -42 0
-2 70 40 41 -42 0
3 -70 40 -41 42 0
-3 70 40 -41 42 0
4 -70 40 -41 -42 0
-4 70 40 -41 -42 0
5 -70 -40 41 42 0
-5 70 -40 41 42 0
6 -70 -40 41 -42 0
-6 70 -40 41 -42 0
7 -70 -40 -41 42 0
-7 70 -40 -41 42 0
8 -70 -40 -41 -42 0
-8 70 -40 -41 -42 0
1 -41 11 12 13 0
-1 41 11 12 13 0
2 -41 11 12 -13 0
-2 41 11 12 -13 0
3 -41 11 -12 13 0
-3 41 11 -12 13 0
4 -41 11 -12 -13 0
-4 41 11 -12 -13 0
5 -41 -11 12 13 0
-5 41 -11 12 13 0
6 -41 -11 12 -13 0
-6 41 -11 12 -13 0
7 -41 -11 -12 13 0
-7 41 -11 -12 13 0
8 -41 -11 -12 -13 0
-8 41 -11 -12 -13 0
1 -71 41 42 43 0
-1 71 41 42 43 0
2 -71 41 42 -43 0
-2 71 41 42 -43 0
3 -71 41 -42 43 0
-3 71 41 -42 43 0
4 -71 41 -42 -43 0
-4 71 41 -42 -43 0
5 -71 -41 42 43 0
-5 71 -41 42 43 0
6 -71 -41 42 -43 0
-6 71 -41 42 -43 0
7 -71 -41 -42 43 0
-7 71 -41 -42 43 0
8 -71 -41 -42 -43 0
-8 71 -41 -42 -43 0
1 -42 12 13 14 0
-1 42 12 13 14 0
2 -42 12 13 -14 0
-2 42 12 13 -14 0
3 -42 12 -13 14 0
-3 42 12 -13 14 0
4 -42 12 -13 -14 0
-4 42 12 -13 -14 0
5 -42 -12 13 14 0
-5 42 -12 13 14 0
6 -42 -12 13 -14 0
-6 42 -12 13 -14 0
7 -42 -12 -13 14 0
-7 42 -12 -13 14 0
8 -42 -12 -13 -14 0
-8 42 -12 -13 -14 0
1 -72 42 43 44 0
-1 72 42 43 44 0
2 -72 42 43 -44 0
-2 72 42 43 -44 0
3 -72 42 -43 44 0
-3 72 42 -43 44 0
4 -72 42 -43 -44 0
-4 72 42 -43 -44 0
5 -72 -42 43 44 0
-5 72 -42 43 44 0
6 -72 -42 43 -44 0
-6 72 -42 43 -44 0
7 -72 -42 -43 44 0
-7 72 -42 -43 44 0
8 -72 -42 -43 -44 0
-8 72 -42 -43 -44 0
1 -43 13 14 15 0
-1 43 13 14 15 0
2 -43 13 14 -15 0
-2 43 13 14 -15 0
3 -43 13 -14 15 0
-3 43 13 -14 15 0
4 -43 13 -14 -15 0
-4 43 13 -14 -15 0
5 -43 -13 14 15 0
-5 43 -13 14 15 0
6 -43 -13 14 -15 0
-6 43 -13 14 -15 0
7 -43 -13 -14 15 0
-7 43 -13 -14 15 0
8 -43 -13 -14 -15 0
-8 43 -13 -14 -15 0
1 -73 43 44 45 0
-1 73 43 44 45 0
2 -73 43 44 -45 0
-2 73 43 44 -45 0
3 -73 43 -44 45 0
-3 73 43 -44 45 0
4 -73 43 -44 -45 0
-4 73 43 -44 -45 0
5 -73 -43 44 45 0
-5 73 -43 44 45 0
6 -73 -43 44 -45 0
-6 73 -43 44 -45 0
7 -73 -43 -44 45 0
-7 73 -43 -44 45 0
8 -73 -43 -44 -45 0
-8 73 -43 -44 -45 0
1 -44 14 15 16 0
-1 44 14 15 16 0
2 -44 14 15 -16 0
-2 44 14 15 -16 0
3 -44 14 -15 16 0
-3 44 14 -15 16 0
4 -44 14 -15 -16 0
-4 44 14 -15 -16 0
5 -44 -14 15 16 0
-5 44 -14 15 16 0
6 -44 -14 15 -16 0
-6 44 -14 15 -16 0
7 -44 -14 -15 16 0
-7 44 -14 -15 16 0
8 -44 -14 -15 -16 0
-8 44 -14 -15 -16 0
1 -74 44 45 46 0
-1 74 44 45 46 0
2 -74 44 45 -46 0
-2 74 44 45 -46 0
3 -74 44 -45 46 0
-3 74 44 -45 46 0
4 -74 44 -45 -46 0
-4 74 44 -45 -46 0
5 -74 -44 45 46 0
-5 74 -44 45 46 0
6 -74 -44 45 -46 0
-6 74 -44 45 -46 0
7 -74 -44 -45 46 0
-7 74 -44 -45 46 0
8 -74 -44 -45 -46 0
-8 74 -44 -45 -46 0
1 -45 15 16 17 0
-1 45 15 16 17 0
2 -45 15 16 -17 0
-2 45 15 16 -17 0
3 -45 15 -16 17 0
-3 45 15 -16 17 0
4 -45 15 -16 -17 0
-4 45 15 -16 -17 0
5 -45 -15 16 17 0
-5 45 -15 16 17 0
6 -45 -15 16 -17 0
-6 45 -15 16 -17 0
7 -45 -15 -16 17 0
-7 45 -15 -16 17 0
8 -45 -15 -16 -17 0
-8 45 -15 -16 -17 0
1 -75 45 46 47 0
-1 75 45 46 47 0
2 -75 45 46 -47 0
-2 75 45 46 -47 0
3 -75 45 -46 47 0
-3 75 45 -46 47 0
4 -75 45 -46 -47 0
-4 75 45 -46 -47 0
5 -75 -45 46 47 0
-5 75 -45 46 47 0
6 -75 -45 46 -47 0
-6 75 -45 46 -47 0
7 -75 -45 -46 47 0
-7 75 -45 -46 47 0
8 -75 -45 -46 -47 0
-8 75 -45 -46 -47 0
1 -46 16 17 18 0
-1 46 16 17 18 0
2 -46 16 17 -18 0
-2 46 16 17 -18 0
3 -46 16 -17 18 0
-3 46 16 -17 18 0
4 -46 16 -17 -18 0
-4 46 16 -17 -18 0
5 -46 -16 17 18 0
-5 46 -16 17 18 0
6 -46 -16 17 -18 0
-6 46 -16 17 -18 0
7 -46 -16 -17 18 0
-7 46 -16 -17 18 0
8 -46 -16 -17 -18 0
-8 46 -16 -17 -18 0
1 -76 46 47 48 0
-1 76 46 47 48 0
2 -76 46 47 -48 0
-2 76 46 47 -48 0
3 -76 46 -47 48 0
-3 76 46 -47 48 0
4 -76 46 -47 -48 0
-4 76 46 -47 -48 0
5 -76 -46 47 48 0
-5 76 -46 47 48 0
6 -76 -46 47 -48 0
-6 76 -46 47 -48 0
7 -76 -46 -47 48 0
-7 76 -46 -47 48 0
8 -76 -46 -47 -48 0
-8 76 -46 -47 -48 0
1 -47 17 18 19 0
-1 47 17 18 19 0
2 -47 17 18 -19 0
-2 47 17 18 -19 0
3 -47 17 -18 19 0
-3 47 17 -18 19 0
4 -47 17 -18 -19 0
-4 47 17 -18 -19 0
5 -47 -17 18 19 0
-5 47 -17 18 19 0
6 -47 -17 18 -19 0
-6 47 -17 18 -19 0
7 -47 -17 -18 19 0
-7 47 -17 -18 19 0
8 -47 -17 -18 -19 0
-8 47 -17 -18 -19 0
1 -77 47 48 49 0
-1 77 47 48 49 0
2 -77 47 48 -49 0
-2 77 47 48 -49 0
3 -77 47 -48 49 0
-3 77 47 -48 49 0
4 -77 47 -48 -49 0
-4 77 47 -48 -49 0
5 -77 -47 48 49 0
-5 77 -47 48 49 0
6 -77 -47 48 -49 0
-6 77 -47 48 -49 0
7 -77 -47 -48 49 0
-7 77 -47 -48 49 0
8 -77 -47 -48 -49 0
-8 77 -47 -48 -49 0
1 -48 18 19 20 0
-1 48 18 19 20 0
2 -48 18 19 -20 0
-2 48 18 19 -20 0
3 -48 18 -19 20 0
-3 48 18 -19 20 0
4 -48 18 -19 -20 0
-4 48 18 -19 -20 0
5 -48 -18 19 20 0
-5 48 -18 19 20 0
6 -48 -18 19 -20 0
-6 48 -18 19 -20 0
7 -48 -18 -19 20 0
-7 48 -18 -19 20 0
8 -48 -18 -19 -20 0
-8 48 -18 -19 -20 0
1 -78 48 49 50 0
-1 78 48 49 50 0
2 -78 48 49 -50 0
-2 78 48 49 -50 0
3 -78 48 -49 50 0
-3 78 48 -49 50 0
4 -78 48 -49 -50 0
-4 78 48 -49 -50 0
5 -78 -48 49 50 0
-5 78 -48 49 50 0
6 -78 -48 49 -50 0
-6 78 -48 49 -50 0
7 -78 -48 -49 50 0
-7 78 -48 -49 50 0
8 -78 -48 -49 -50 0
-8 78 -48 -49 -50 0
1 -49 19 20 21 0
-1 49 19 20 21 0
2 -49 19 20 -21 0
-2 49 19 20 -21 0
3 -49 19 -20 21 0
-3 49 19 -20 21 0
4 -49 19 -20 -21 0
-4 49 19 -20 -21 0
5 -49 -19 20 21 0
-5 49 -19 20 21 0
6 -49 -19 20 -21 0
-6 49 -19 20 -21 0
7 -49 -19 -20 21 0
-7 49 -19 -20 21 0
8 -49 -19 -20 -21 0
-8 49 -19 -20 -21 0
1 -79 49 50 51 0
-1 79 49 50 51 0
2 -79 49 50 -51 0
-2 79 49 50 -51 0
3 -79 49 -50 51 0
-3 79 49 -50 51 0
4 -79 49 -50 -51 0
-4 79 49 -50 -51 0
5 -79 -49 50 51 0
-5 79 -49 50 51 0
6 -79 -49 50 -51 0
-6 79 -49 50 -51 0
7 -79 -49 -50 51 0
-7 79 -49 -50 51 0
8 -79 -49 -50 -51 0
-8 79 -49 -50 -51 0
1 -50 20 21 22 0
-1 50 20 21 22 0
2 -50 20 21 -22 0
-2 50 20 21 -22 0
3 -50 20 -21 22 0
-3 50 20 -21 22 0
4 -50 20 -21 -22 0
-4 50 20 -21 -22 0
5 -50 -20 21 22 0
-5 50 -20 21 22 0
6 -50 -20 21 -22 0
-6 50 -20 21 -22 0
7 -50 -20 -21 22 0
-7 50 -20 -21 22 0
8 -50 -20 -21 -22 0
-8 50 -20 -21 -22 0
1 -80 50 51 52 0
-1 80 50 51 52 0
2 -80 50 51 -52 0
-2 80 50 51 -52 0
3 -80 50 -51 52 0
-3 80 50 -51 52 0
4 -80 50 -51 -52 0
-4 80 50 -51 -52 0
5 -80 -50 51 52 0
-5 80 -50 51 52 0
6 -80 -50 51 -52 0
-6 80 -50 51 -52 0
7 -80 -50 -51 52 0
-7 80 -50 -51 52 0
8 -80 -50 -51 -52 0
-8 80 -50 -51 -52 0
1 -51 21 22 23 0
-1 51 21 22 23 0
2 -51 21 22 -23 0
-2 51 21 22 -23 0
3 -51 21 -22 23 0
-3 51 21 -22 23 0
4 -51 21 -22 -23 0
-4 51 21 -22 -23 0
5 -51 -21 22 23 0
-5 51 -21 22 23 0
6 -51 -21 22 -23 0
-6 51 -21 22 -23 0
7 -51 -21 -22 23 0
-7 51 -21 -22 23 0
8 -51 -21 -22 -23 0
-8 51 -21 -22 -23 0
1 -81 51 52 53 0
-1 81 51 52 53 0
2 -81 51 52 -53 0
-2 81 51 52 -53 0
3 -81 51 -52 53 0
-3 81 51 -52 53 0
4 -81 51 -52 -53 0
-4 81 51 -52 -53 0
5 -81 -51 52 53 0
-5 81 -51 52 53 0
6 -81 -51 52 -53 0
-6 81 -51 52 -53 0
7 -81 -51 -52 53 0
-7 81 -51 -52 53 0
8 -81 -51 -52 -53 0
-8 81 -51 -52 -53 0
1 -52 22 23 24 0
-1 52 22 23 24 0
2 -52 22 23 -24 0
-2 52 22 23 -24 0
3 -52 22 -23 24 0
-3 52 22 -23 24 0
4 -52 22 -23 -24 0
-4 52 22 -23 -24 0
5 -52 -22 23 24 0
-5 52 -22 23 24 0
6 -52 -22 23 -24 0
-6 52 -22 23 -24 0
7 -52 -22 -23 24 0
-7 52 -22 -23 24 0
8 -52 -22 -23 -24 0
-8 52 -22 -23 -24 0
1 -82 52 53 54 0
-1 82 52 53 54 0
2 -82 52 53 -54 0
-2 82 52 53 -54 0
3 -82 52 -53 54 0
-3 82 52 -53 54 0
4 -82 52 -53 -54 0
-4 82 52 -53 -54 0
5 -82 -52 53 54 0
-5 82 -52 53 54 0
6 -82 -52 53 -54 0
-6 82 -52 53 -54 0
7 -82 -52 -53 54 0
-7 82 -52 -53 54 0
8 -82 -52 -53 -54 0
-8 82 -52 -53 -54 0
1 -53 23 24 25 0
-1 53 23 24 25 0
2 -53 23 24 -25 0
-2 53 23 24 -25 0
3 -53 23 -24 25 0
-3 53 23 -24 25 0
4 -53 23 -24 -25 0
-4 53 23 -24 -25 0
5 -53 -23 24 25 0
-5 53 -23 24 25 0
6 -53 -23 24 -25 0
-6 53 -23 24 -25 0
7 -53 -23 -24 25 0
-7 53 -23 -24 25 0
8 -53 -23 -24 -25 0
-8 53 -23 -24 -25 0
1 -83 53 54 55 0
-1 83 53 54 55 0
2 -83 53 54 -55 0
-2 83 53 54 -55 0
3 -83 53 -54 55 0
-3 83 53 -54 55 0
4 -83 53 -54 -55 0
-4 83 53 -54 -55 0
5 -83 -53 54 55 0
-5 83 -53 54 55 0
6 -83 -53 54 -55 0
-6 83 -53 54 -55 0
7 -83 -53 -54 55 0
-7 83 -53 -54 55 0
8 -83 -53 -54 -55 0
-8 83 -53 -54 -55 0
1 -54 24 25 26 0
-1 54 24 25 26 0
2 -54 24 25 -26 0
-2 54 24 25 -26 0
3 -54 24 -25 26 0
-3 54 24 -25 26 0
4 -54 24 -25 -26 0
-4 54 24 -25 -26 0
5 -54 -24 25 26 0
-5 54 -24 25 26 0
6 -54 -24 25 -26 0
-6 54 -24 25 -26 0
7 -54 -24 -25 26 0
-7 54 -24 -25 26 0
8 -54 -24 -25 -26 0
-8 54 -24 -25 -26 0
1 -84 54 55 56 0
-1 84 54 55 56 0
2 -84 54 55 -56 0
-2 84 54 55 -56 0
3 -84 54 -55 56 0
-3 84 54 -55 56 0
4 -84 54 -55 -56 0
-4 84 54 -55 -56 0
5 -84 -54 55 56 0
-5 84 -54 55 56 0
6 -84 -54 55 -56 0
-6 84 -54 55 -56 0
7 -84 -54 -55 56 0
-7 84 -54 -55 56 0
8 -84 -54 -55 -56 0
-8 84 -54 -55 -56 0
1 -55 25 26 27 0
-1 55 25 26 27 0
2 -55 25 26 -27 0
-2 55 25 26 -27 0
3 -55 25 -26 27 0
-3 55 25 -26 27 0
4 -55 25 -26 -27 0
-4 55 25 -26 -27 0
5 -55 -25 26 27 0
-5 55 -25 26 27 0
6 -55 -25 26 -27 0
-6 55 -25 26 -27 0
7 -55 -25 -26 27 0
-7 55 -25 -26 27 0
8 -55 -25 -26 -27 0
-8 55 -25 -26 -27 0
1 -85 55 56 57 0
-1 85 55 56 57 0
2 -85 55 56 -57 0
-2 85 55 56 -57 0
3 -85 55 -56 57 0
-3 85 55 -56 57 0
4 -85 55 -56 -57 0
-4 85 55 -56 -57 0
5 -85 -55 56 57 0
-5 85 -55 56 57 0
6 -85 -55 56 -57 0
-6 85 -55 56 -57 0
7 -85 -55 -56 57 0
-7 85 -55 -56 57 0
8 -85 -55 -56 -57 0
-8 85 -55 -56 -57 0
1 -56 26 27 28 0
-1 56 26 27 28 0
2 -56 26 27 -28 0
-2 56 26 27 -28 0
3 -56 26 -27 28 0
-3 56 26 -27 28 0
4 -56 26 -27 -28 0
-4 56 26 -27 -28 0
5 -56 -26 27 28 0
-5 56 -26 27 28 0
6 -56 -26 27 -28 0
-6 56 -26 27 -28 0
7 -56 -26 -27 28 0
-7 56 -26 -27 28 0
8 -56 -26 -27 -28 0
-8 56 -26 -27 -28 0
1 -86 56 57 58 0
-1 86 56 57 58 0
2 -86 56 57 -58 0
-2 86 56 57 -58 0
3 -86 56 -57 58 0
-3 86 56 -57 58 0
4 -86 56 -57 -58 0
-4 86 56 -57 -58 0
5 -86 -56 57 58 0
-5 86 -56 57 58 0
6 -86 -56 57 -58 0
-6 86 -56 57 -58 0
7 -86 -56 -57 58 0
-7 86 -56 -57 58 0
8 -86 -56 -57 -58 0
-8 86 -56 -57 -58 0
1 -57 27 28 29 0
-1 57 27 28 29 0
2 -57 27 28 -29 0
-2 57 27 28 -29 0
3 -57 27 -28 29 0
-3 57 27 -28 29 0
4 -57 27 -28 -29 0
-4 57 27 -28 -29 0
5 -57 -27 28 29 0
-5 57 -27 28 29 0
6 -57 -27 28 -29 0
-6 57 -27 28 -29 0
7 -57 -27 -28 29 0
-7 57 -27 -28 29 0
8 -57 -27 -28 -29 0
-8 57 -27 -28 -29 0
1 -87 57 58 59 0
-1 87 57 58 59 0
2 -87 57 58 -59 0
-2 87 57 58 -59 0
3 -87 57 -58 59 0
-3 87 57 -58 59 0
4 -87 57 -58 -59 0
-4 87 57 -58 -59 0
5 -87 -57 58 59 0
-5 87 -57 58 59 0
6 -87 -57 58 -59 0
-6 87 -57 58 -59 0
7 -87 -57 -58 59 0
-7 87 -57 -58 59 0
8 -87 -57 -58 -59 0
-8 87 -57 -58 -59 0
1 -58 28 29 30 0
-1 58 28 29 30 0
2 -58 28 29 -30 0
-2 58 28 29 -30 0
3 -58 28 -29 30 0
-3 58 28 -29 30 0
4 -58 28 -29 -30 0
-4 58 28 -29 -30 0
5 -58 -28 29 30 0
-5 58 -28 29 30 0
6 -58 -28 29 -30 0
-6 58 -28 29 -30 0
7 -58 -28 -29 30 0
-7 58 -28 -29 30 0
8 -58 -28 -29 -30 0
-8 58 -28 -29 -30 0
1 -88 58 59 60 0
-1 88 58 59 60 0
2 -88 58 59 -60 0
-2 88 58 59 -60 0
3 -88 58 -59 60 0
-3 88 58 -59 60 0
4 -88 58 -59 -60 0
-4 88 58 -59 -60 0
5 -88 -58 59 60 0
-5 88 -58 59 60 0
6 -88 -58 59 -60 0
-6 88 -58 59 -60 0
7 -88 -58 -59 60 0
-7 88 -58 -59 60 0
8 -88 -58 -59 -60 0
-8 88 -58 -59 -60 0
1 -59 29 30 31 0
-1 59 29 30 31 0
2 -59 29 30 -31 0
-2 59 29 30 -31 0
3 -59 29 -30 31 0
-3 59 29 -30 31 0
4 -59 29 -30 -31 0
-4 59 29 -30 -31 0
5 -59 -29 30 31 0
-5 59 -29 30 31 0
6 -59 -29 30 -31 0
-6 59 -29 30 -31 0
7 -59 -29 -30 31 0
-7 59 -29 -30 31 0
8 -59 -29 -30 -31 0
-8 59 -29 -30 -31 0
1 -89 59 60 61 0
-1 89 59 60 61 0
2 -89 59 60 -61 0
-2 89 59 60 -61 0
3 -89 59 -60 61 0
-3 89 59 -60 61 0
4 -89 59 -60 -61 0
-4 89 59 -60 -61 0
5 -89 -59 60 61 0
-5 89 -59 60 61 0
6 -89 -59 60 -61 0
-6 89 -59 60 -61 0
7 -89 -59 -60 61 0
-7 89 -59 -60 61 0
8 -89 -59 -60 -61 0
-8 89 -59 -60 -61 0
1 -60 30 31 32 0
-1 60 30 31 32 0
2 -60 30 31 -32 0
-2 60 30 31 -32 0
3 -60 30 -31 32 0
-3 60 30 -31 32 0
4 -60 30 -31 -32 0
-4 60 30 -31 -32 0
5 -60 -30 31 32 0
-5 60 -30 31 32 0
6 -60 -30 31 -32 0
-6 60 -30 31 -32 0
7 -60 -30 -31 32 0
-7 60 -30 -31 32 0
8 -60 -30 -31 -32 0
-8 60 -30 -31 -32 0
1 -90 60 61 62 0
-1 90 60 61 62 0
2 -90 60 61 -62 0
-2 90 60 61 -62 0
3 -90 60 -61 62 0
-3 90 60 -61 62 0
4 -90 60 -61 -62 0
-4 90 60 -61 -62 0
5 -90 -60 61 62 0
-5 90 -60 61 62 0
6 -90 -60 61 -62 0
-6 90 -60 61 -62 0
7 -90 -60 -61 62 0
-7 90 -60 -61 62 0
8 -90 -60 -61 -62 0
-8 90 -60 -61 -62 0
1 -61 31 32 33 0
-1 61 31 32 33 0
2 -61 31 32 -33 0
-2 61 31 32 -33 0
3 -61 31 -32 33 0
-3 61 31 -32 33 0
4 -61 31 -32 -33 0
-4 61 31 -32 -33 0
5 -61 -31 32 33 0
-5 61 -31 32 33 0
6 -61 -31 32 -33 0
-6 61 -31 32 -33 0
7 -61 -31 -32 33 0
-7 61 -31 -32 33 0
8 -61 -31 -32 -33 0
-8 61 -31 -32 -33 0
1 -91 61 62 63 0
-1 91 61 62 63 0
2 -91 61 62 -63 0
-2 91 61 62 -63 0
3 -91 61 -62 63 0
-3 91 61 -62 63 0
4 -91 61 -62 -63 0
-4 91 61 -62 -63 0
5 -91 -61 62 63 0
-5 91 -61 62 63 0
6 -91 -61 62 -63 0
-6 91 -61 62 -63 0
7 -91 -61 -62 63 0
-7 91 -61 -62 63 0
8 -91 -61 -62 -63 0
-8 91 -61 -62 -63 0
1 -62 32 33 34 0
-1 62 32 33 34 0
2 -62 32 33 -34 0
-2 62 32 33 -34 0
3 -62 32 -33 34 0
-3 62 32 -33 34 0
4 -62 32 -33 -34 0
-4 62 32 -33 -34 0
5 -62 -32 33 34 0
-5 62 -32 33 34 0
6 -62 -32 33 -34 0
-6 62 -32 33 -34 0
7 -62 -32 -33 34 0
-7 62 -32 -33 34 0
8 -62 -32 -33 -34 0
-8 62 -32 -33 -34 0
1 -92 62 63 64 0
-1 92 62 63 64 0
2 -92 62 63 -64 0
-2 92 62 63 -64 0
3 -92 62 -63 64 0
-3 92 62 -63 64 0
4 -92 62 -63 -64 0
-4 92 62 -63 -64 0
5 -92 -62 63 64 0
-5 92 -62 63 64 0
6 -92 -62 63 -64 0
-6 92 -62 63 -64 0
7 -92 -62 -63 64 0
-7 92 -62 -63 64 0
8 -92 -62 -63 -64 0
-8 92 -62 -63 -64 0
1 -63 33 34 35 0
-1 63 33 34 35 0
2 -63 33 34 -35 0
-2 63 33 34 -35 0
3 -63 33 -34 35 0
-3 63 33 -34 35 0
4 -63 33 -34 -35 0
-4 63 33 -34 -35 0
5 -63 -33 34 35 0
-5 63 -33 34 35 0
6 -63 -33 34 -35 0
-6 63 -33 34 -35 0
7 -63 -33 -34 35 0
-7 63 -33 -34 35 0
8 -63 -33 -34 -35 0
-8 63 -33 -34 -35 0
1 -93 63 64 65 0
-1 93 63 64 65 0
2 -93 63 64 -65 0
-2 93 63 64 -65 0
3 -93 63 -64 65 0
-3 93 63 -64 65 0
4 -93 63 -64 -65 0
-4 93 63 -64 -65 0
5 -93 -63 64 65 0
-5 93 -63 64 65 0
6 -93 -63 64 -65 0
-6 93 -63 64 -65 0
7 -93 -63 -64 65 0
-7 93 -63 -64 65 0
8 -93 -63 -64 -65 0
-8 93 -63 -64 -65 0
1 -64 34 35 36 0
-1 64 34 35 36 0
2 -64 34 35 -36 0
-2 64 34 35 -36 0
3 -64 34 -35 36 0
-3 64 34 -35 36 0
4 -64 34 -35 -36 0
-4 64 34 -35 -36 0
5 -64 -34 35 36 0
-5 64 -34 35 36 0
6 -64 -34 35 -36 0
-6 64 -34 35 -36 0
7 -64 -34 -35 36 0
-7 64 -34 -35 36 0
8 -64 -34 -35 -36 0
-8 64 -34 -35 -36 0
1 -94 64 65 66 0
-1 94 64 65 66 0
2 -94 64 65 -66 0
-2 94 64 65 -66 0
3 -94 64 -65 66 0
-3 94 64 -65 66 0
4 -94 64 -65 -66 0
-4 94 64 -65 -66 0
5 -94 -64 65 66 0
-5 94 -64 65 66 0
6 -94 -64 65 -66 0
-6 94 -64 65 -66 0
7 -94 -64 -65 66 0
-7 94 -64 -65 66 0
8 -94 -64 -65 -66 0
-8 94 -64 -65 -66 0
1 -65 35 36 37 0
-1 65 35 36 37 0
2 -65 35 36 -37 0
-2 65 35 36 -37 0
3 -65 35 -36 37 0
-3 65 35 -36 37 0
4 -65 35 -36 -37 0
-4 65 35 -36 -37 0
5 -65 -35 36 37 0
-5 65 -35 36 37 0
6 -65 -35 36 -37 0
-6 65 -35 36 -37 0
7 -65 -35 -36 37 0
-7 65 -35 -36 37 0
8 -65 -35 -36 -37 0
-8 65 -35 -36 -37 0
1 -95 65 66 67 0
-1 95 65 66 67 0
2 -95 65 66 -67 0
-2 95 65 66 -67 0
3 -95 65 -66 67 0
-3 95 65 -66 67 0
4 -95 65 -66 -67 0
-4 95 65 -66 -67 0
5 -95 -65 66 67 0
-5 95 -65 66 67 0
6 -95 -65 66 -67 0
-6 95 -65 66 -67 0
7 -95 -65 -66 67 0
-7 95 -65 -66 67 0
8 -95 -65 -66 -67 0
-8 95 -65 -66 -67 0
1 -66 36 37 38 0
-1 66 36 37 38 0
2 -66 36 37 -38 0
-2 66 36 37 -38 0
3 -66 36 -37 38 0
-3 66 36 -37 38 0
4 -66 36 -37 -38 0
-4 66 36 -37 -38 0
5 -66 -36 37 38 0
-5 66 -36 37 38 0
6 -66 -36 37 -38 0
-6 66 -36 37 -38 0
7 -66 -36 -37 38 0
-7 66 -36 -37 38 0
8 -66 -36 -37 -38 0
-8 66 -36 -37 -38 0
1 -96 66 67 68 0
-1 96 66 67 68 0
2 -96 66 67 -68 0
-2 96 66 67 -68 0
3 -96 66 -67 68 0
-3 96 66 -67 68 0
4 -96 66 -67 -68 0
-4 96 66 -67 -68 0
5 -96 -66 67 68 0
-5 96 -66 67 68 0
6 -96 -66 67 -68 0
-6 96 -66 67 -68 0
7 -96 -66 -67 68 0
-7 96 -66 -67 68 0
8 -96 -66 -67 -68 0
-8 96 -66 -67 -68 0
1 -67 37 38 9 0
-1 67 37 38 9 0
2 -67 37 38 -9 0
-2 67 37 38 -9 0
3 -67 37 -38 9 0
-3 67 37 -38 9 0
4 -67 37 -38 -9 0
-4 67 37 -38 -9 0
5 -67 -37 38 9 0
-5 67 -37 38 9 0
6 -67 -37 38 -9 0
-6 67 -37 38 -9 0
7 -67 -37 -38 9 0
-7 67 -37 -38 9 0
8 -67 -37 -38 -9 0
-8 67 -37 -38 -9 0
1 -97 67 68 39 0
-1 97 67 68 39 0
2 -97 67 68 -39 0
-2 97 67 68 -39 0
3 -97 67 -68 39 0
-3 97 67 -68 39 0
4 -97 67 -68 -39 0
-4 97 67 -68 -39 0
5 -97 -67 68 39 0
-5 97 -67 68 39 0
6 -97 -67 68 -39 0
-6 97 -67 68 -39 0
7 -97 -67 -68 39 0
-7 97 -67 -68 39 0
8 -97 -67 -68 -39 0
-8 97 -67 -68 -39 0
1 -68 38 9 10 0
-1 68 38 9 10 0
2 -68 38 9 -10 0
-2 68 38 9 -10 0
3 -68 38 -9 10 0
-3 68 38 -9 10 0
4 -68 38 -9 -10 0
-4 68 38 -9 -10 0
5 -68 -38 9 10 0
-5 68 -38 9 10 0
6 -68 -38 9 -10 0
-6 68 -38 9 -10 0
7 -68 -38 -9 10 0
-7 68 -38 -9 10 0
8 -68 -38 -9 -10 0
-8 68 -38 -9 -10 0
1 -98 68 39 40 0
-1 98 68 39 40 0
2 -98 68 39 -40 0
-2 98 68 39 -40 0
3 -98 68 -39 40 0
-3 98 68 -39 40 0
4 -98 68 -39 -40 0
-4 98 68 -39 -40 0
5 -98 -68 39 40 0
-5 98 -68 39 40 0
6 -98 -68 39 -40 0
-6 98 -68 39 -40 0
7 -98 -68 -39 40 0
-7 98 -68 -39 40 0
8 -98 -68 -39 -40 0
-8 98 -68 -39 -40 0