30_3_2.dat
100001111101000100010111110111
111010001100100010011000111011